
        $ From http://www.csplib.org/Problems/prob009/data/helmut.pdf
        $ Problem number 150
        $ Sequence length : 25
        language ESSENCE' 1.0
        letting sizemaster be 512
        letting sizes be sequence(1,7,8,9,10,15,22,32,34,46,51,65,69,71,91,105,109,111,136,139,152,157,173,200,203)
        